W=7;
H=5;

MAX_TIME=29;
MAX_TRACKS=18;

TARGET=(3,7);

TRAINS=[(1,2,RIGHT),(5,2,RIGHT)];

INIT_POS=[
(1,2,STRAIGHT_RL),
(1,3,STRAIGHT_RL),
(3,6,STRAIGHT_RL),
(3,7,STRAIGHT_RL),
(4,3,CORNER_DR),
(4,4,CORNER_DL),
(5,2,STRAIGHT_RL),
(5,3,DSWITCH_R_L_T),
(5,4,DSWITCH_L_R_T),
(5,5,STRAIGHT_RL),
];
TUNNEL_PAIRS=[];

GATES=[
(3,6,1,true),
];
ACTIVATIONS=[
(1,3,1),
(5,5,1),
];

DSWITCHES=[
(5,3,1),
(5,4,1),
];
STATIONS=[];
